(set-info :smt-lib-version 2.6)
(set-logic QF_LRA)
(set-info :source |
Generated by: Mădălina Erașcu, Răzvan Meteș 
Generated on: 2019-05-03
Application: SecureBillingEmail
Target solver: Z3
|)
(set-info :license "https://creativecommons.org/licenses/by/4.0/")
(set-info :category "industrial")
(set-info :minimum 1079/1000)

(declare-fun VM1Type () Real)
(declare-fun VM2Type () Real)
(declare-fun VM3Type () Real)
(declare-fun VM4Type () Real)
(declare-fun VM5Type () Real)
(declare-fun PriceProv1 () Real)
(declare-fun C5_VM1 () Bool)
(declare-fun C4_VM1 () Bool)
(declare-fun C3_VM1 () Bool)
(declare-fun C2_VM1 () Bool)
(declare-fun C1_VM1 () Bool)
(declare-fun PriceProv2 () Real)
(declare-fun C5_VM2 () Bool)
(declare-fun C4_VM2 () Bool)
(declare-fun C3_VM2 () Bool)
(declare-fun C2_VM2 () Bool)
(declare-fun C1_VM2 () Bool)
(declare-fun PriceProv3 () Real)
(declare-fun C5_VM3 () Bool)
(declare-fun C4_VM3 () Bool)
(declare-fun C3_VM3 () Bool)
(declare-fun C2_VM3 () Bool)
(declare-fun C1_VM3 () Bool)
(declare-fun PriceProv4 () Real)
(declare-fun C5_VM4 () Bool)
(declare-fun C4_VM4 () Bool)
(declare-fun C3_VM4 () Bool)
(declare-fun C2_VM4 () Bool)
(declare-fun C1_VM4 () Bool)
(declare-fun PriceProv5 () Real)
(declare-fun C5_VM5 () Bool)
(declare-fun C4_VM5 () Bool)
(declare-fun C3_VM5 () Bool)
(declare-fun C2_VM5 () Bool)
(declare-fun C1_VM5 () Bool)
(declare-fun StorageProv1 () Real)
(declare-fun MemProv1 () Real)
(declare-fun ProcProv1 () Real)
(declare-fun StorageProv2 () Real)
(declare-fun MemProv2 () Real)
(declare-fun ProcProv2 () Real)
(declare-fun StorageProv3 () Real)
(declare-fun MemProv3 () Real)
(declare-fun ProcProv3 () Real)
(declare-fun StorageProv4 () Real)
(declare-fun MemProv4 () Real)
(declare-fun ProcProv4 () Real)
(declare-fun StorageProv5 () Real)
(declare-fun MemProv5 () Real)
(declare-fun ProcProv5 () Real)
(assert (or (= VM1Type 1.0)
    (= VM1Type 2.0)
    (= VM1Type 3.0)
    (= VM1Type 4.0)
    (= VM1Type 5.0)
    (= VM1Type 6.0)
    (= VM1Type 7.0)
    (= VM1Type 8.0)
    (= VM1Type 9.0)
    (= VM1Type 10.0)
    (= VM1Type 11.0)
    (= VM1Type 12.0)
    (= VM1Type 13.0)
    (= VM1Type 14.0)
    (= VM1Type 15.0)
    (= VM1Type 16.0)
    (= VM1Type 17.0)
    (= VM1Type 18.0)
    (= VM1Type 19.0)
    (= VM1Type 20.0)))
(assert (or (= VM2Type 1.0)
    (= VM2Type 2.0)
    (= VM2Type 3.0)
    (= VM2Type 4.0)
    (= VM2Type 5.0)
    (= VM2Type 6.0)
    (= VM2Type 7.0)
    (= VM2Type 8.0)
    (= VM2Type 9.0)
    (= VM2Type 10.0)
    (= VM2Type 11.0)
    (= VM2Type 12.0)
    (= VM2Type 13.0)
    (= VM2Type 14.0)
    (= VM2Type 15.0)
    (= VM2Type 16.0)
    (= VM2Type 17.0)
    (= VM2Type 18.0)
    (= VM2Type 19.0)
    (= VM2Type 20.0)))
(assert (or (= VM3Type 1.0)
    (= VM3Type 2.0)
    (= VM3Type 3.0)
    (= VM3Type 4.0)
    (= VM3Type 5.0)
    (= VM3Type 6.0)
    (= VM3Type 7.0)
    (= VM3Type 8.0)
    (= VM3Type 9.0)
    (= VM3Type 10.0)
    (= VM3Type 11.0)
    (= VM3Type 12.0)
    (= VM3Type 13.0)
    (= VM3Type 14.0)
    (= VM3Type 15.0)
    (= VM3Type 16.0)
    (= VM3Type 17.0)
    (= VM3Type 18.0)
    (= VM3Type 19.0)
    (= VM3Type 20.0)))
(assert (or (= VM4Type 1.0)
    (= VM4Type 2.0)
    (= VM4Type 3.0)
    (= VM4Type 4.0)
    (= VM4Type 5.0)
    (= VM4Type 6.0)
    (= VM4Type 7.0)
    (= VM4Type 8.0)
    (= VM4Type 9.0)
    (= VM4Type 10.0)
    (= VM4Type 11.0)
    (= VM4Type 12.0)
    (= VM4Type 13.0)
    (= VM4Type 14.0)
    (= VM4Type 15.0)
    (= VM4Type 16.0)
    (= VM4Type 17.0)
    (= VM4Type 18.0)
    (= VM4Type 19.0)
    (= VM4Type 20.0)))
(assert (or (= VM5Type 1.0)
    (= VM5Type 2.0)
    (= VM5Type 3.0)
    (= VM5Type 4.0)
    (= VM5Type 5.0)
    (= VM5Type 6.0)
    (= VM5Type 7.0)
    (= VM5Type 8.0)
    (= VM5Type 9.0)
    (= VM5Type 10.0)
    (= VM5Type 11.0)
    (= VM5Type 12.0)
    (= VM5Type 13.0)
    (= VM5Type 14.0)
    (= VM5Type 15.0)
    (= VM5Type 16.0)
    (= VM5Type 17.0)
    (= VM5Type 18.0)
    (= VM5Type 19.0)
    (= VM5Type 20.0)))
(assert (=> ((_ pbeq 0 1 1 1 1 1) C1_VM1 C2_VM1 C3_VM1 C4_VM1 C5_VM1)
    (= PriceProv1 0.0)))
(assert (=> ((_ pbeq 0 1 1 1 1 1) C1_VM2 C2_VM2 C3_VM2 C4_VM2 C5_VM2)
    (= PriceProv2 0.0)))
(assert (=> ((_ pbeq 0 1 1 1 1 1) C1_VM3 C2_VM3 C3_VM3 C4_VM3 C5_VM3)
    (= PriceProv3 0.0)))
(assert (=> ((_ pbeq 0 1 1 1 1 1) C1_VM4 C2_VM4 C3_VM4 C4_VM4 C5_VM4)
    (= PriceProv4 0.0)))
(assert (=> ((_ pbeq 0 1 1 1 1 1) C1_VM5 C2_VM5 C3_VM5 C4_VM5 C5_VM5)
    (= PriceProv5 0.0)))
(assert (=> (and ((_ at-least 1) C1_VM1 C2_VM1 C3_VM1 C4_VM1 C5_VM1) (= VM1Type 1.0))
    (and (= PriceProv1 8403.0)
         (= ProcProv1 64.0)
         (= MemProv1 976000.0)
         (= StorageProv1 1000.0))))
(assert (=> (and ((_ at-least 1) C1_VM2 C2_VM2 C3_VM2 C4_VM2 C5_VM2) (= VM2Type 1.0))
    (and (= PriceProv2 8403.0)
         (= ProcProv2 64.0)
         (= MemProv2 976000.0)
         (= StorageProv2 1000.0))))
(assert (=> (and ((_ at-least 1) C1_VM3 C2_VM3 C3_VM3 C4_VM3 C5_VM3) (= VM3Type 1.0))
    (and (= PriceProv3 8403.0)
         (= ProcProv3 64.0)
         (= MemProv3 976000.0)
         (= StorageProv3 1000.0))))
(assert (=> (and ((_ at-least 1) C1_VM4 C2_VM4 C3_VM4 C4_VM4 C5_VM4) (= VM4Type 1.0))
    (and (= PriceProv4 8403.0)
         (= ProcProv4 64.0)
         (= MemProv4 976000.0)
         (= StorageProv4 1000.0))))
(assert (=> (and ((_ at-least 1) C1_VM5 C2_VM5 C3_VM5 C4_VM5 C5_VM5) (= VM5Type 1.0))
    (and (= PriceProv5 8403.0)
         (= ProcProv5 64.0)
         (= MemProv5 976000.0)
         (= StorageProv5 1000.0))))
(assert (=> (and ((_ at-least 1) C1_VM1 C2_VM1 C3_VM1 C4_VM1 C5_VM1) (= VM1Type 2.0))
    (and (= PriceProv1 9152.0)
         (= ProcProv1 64.0)
         (= MemProv1 488000.0)
         (= StorageProv1 8000.0))))
(assert (=> (and ((_ at-least 1) C1_VM2 C2_VM2 C3_VM2 C4_VM2 C5_VM2) (= VM2Type 2.0))
    (and (= PriceProv2 9152.0)
         (= ProcProv2 64.0)
         (= MemProv2 488000.0)
         (= StorageProv2 8000.0))))
(assert (=> (and ((_ at-least 1) C1_VM3 C2_VM3 C3_VM3 C4_VM3 C5_VM3) (= VM3Type 2.0))
    (and (= PriceProv3 9152.0)
         (= ProcProv3 64.0)
         (= MemProv3 488000.0)
         (= StorageProv3 8000.0))))
(assert (=> (and ((_ at-least 1) C1_VM4 C2_VM4 C3_VM4 C4_VM4 C5_VM4) (= VM4Type 2.0))
    (and (= PriceProv4 9152.0)
         (= ProcProv4 64.0)
         (= MemProv4 488000.0)
         (= StorageProv4 8000.0))))
(assert (=> (and ((_ at-least 1) C1_VM5 C2_VM5 C3_VM5 C4_VM5 C5_VM5) (= VM5Type 2.0))
    (and (= PriceProv5 9152.0)
         (= ProcProv5 64.0)
         (= MemProv5 488000.0)
         (= StorageProv5 8000.0))))
(assert (=> (and ((_ at-least 1) C1_VM1 C2_VM1 C3_VM1 C4_VM1 C5_VM1) (= VM1Type 3.0))
    (and (= PriceProv1 2752.0)
         (= ProcProv1 32.0)
         (= MemProv1 244000.0)
         (= StorageProv1 4000.0))))
(assert (=> (and ((_ at-least 1) C1_VM2 C2_VM2 C3_VM2 C4_VM2 C5_VM2) (= VM2Type 3.0))
    (and (= PriceProv2 2752.0)
         (= ProcProv2 32.0)
         (= MemProv2 244000.0)
         (= StorageProv2 4000.0))))
(assert (=> (and ((_ at-least 1) C1_VM3 C2_VM3 C3_VM3 C4_VM3 C5_VM3) (= VM3Type 3.0))
    (and (= PriceProv3 2752.0)
         (= ProcProv3 32.0)
         (= MemProv3 244000.0)
         (= StorageProv3 4000.0))))
(assert (=> (and ((_ at-least 1) C1_VM4 C2_VM4 C3_VM4 C4_VM4 C5_VM4) (= VM4Type 3.0))
    (and (= PriceProv4 2752.0)
         (= ProcProv4 32.0)
         (= MemProv4 244000.0)
         (= StorageProv4 4000.0))))
(assert (=> (and ((_ at-least 1) C1_VM5 C2_VM5 C3_VM5 C4_VM5 C5_VM5) (= VM5Type 3.0))
    (and (= PriceProv5 2752.0)
         (= ProcProv5 32.0)
         (= MemProv5 244000.0)
         (= StorageProv5 4000.0))))
(assert (=> (and ((_ at-least 1) C1_VM1 C2_VM1 C3_VM1 C4_VM1 C5_VM1) (= VM1Type 4.0))
    (and (= PriceProv1 2808.0)
         (= ProcProv1 32.0)
         (= MemProv1 60000.0)
         (= StorageProv1 2000.0))))
(assert (=> (and ((_ at-least 1) C1_VM2 C2_VM2 C3_VM2 C4_VM2 C5_VM2) (= VM2Type 4.0))
    (and (= PriceProv2 2808.0)
         (= ProcProv2 32.0)
         (= MemProv2 60000.0)
         (= StorageProv2 2000.0))))
(assert (=> (and ((_ at-least 1) C1_VM3 C2_VM3 C3_VM3 C4_VM3 C5_VM3) (= VM3Type 4.0))
    (and (= PriceProv3 2808.0)
         (= ProcProv3 32.0)
         (= MemProv3 60000.0)
         (= StorageProv3 2000.0))))
(assert (=> (and ((_ at-least 1) C1_VM4 C2_VM4 C3_VM4 C4_VM4 C5_VM4) (= VM4Type 4.0))
    (and (= PriceProv4 2808.0)
         (= ProcProv4 32.0)
         (= MemProv4 60000.0)
         (= StorageProv4 2000.0))))
(assert (=> (and ((_ at-least 1) C1_VM5 C2_VM5 C3_VM5 C4_VM5 C5_VM5) (= VM5Type 4.0))
    (and (= PriceProv5 2808.0)
         (= ProcProv5 32.0)
         (= MemProv5 60000.0)
         (= StorageProv5 2000.0))))
(assert (=> (and ((_ at-least 1) C1_VM1 C2_VM1 C3_VM1 C4_VM1 C5_VM1) (= VM1Type 5.0))
    (and (= PriceProv1 3309.0)
         (= ProcProv1 32.0)
         (= MemProv1 244000.0)
         (= StorageProv1 4000.0))))
(assert (=> (and ((_ at-least 1) C1_VM2 C2_VM2 C3_VM2 C4_VM2 C5_VM2) (= VM2Type 5.0))
    (and (= PriceProv2 3309.0)
         (= ProcProv2 32.0)
         (= MemProv2 244000.0)
         (= StorageProv2 4000.0))))
(assert (=> (and ((_ at-least 1) C1_VM3 C2_VM3 C3_VM3 C4_VM3 C5_VM3) (= VM3Type 5.0))
    (and (= PriceProv3 3309.0)
         (= ProcProv3 32.0)
         (= MemProv3 244000.0)
         (= StorageProv3 4000.0))))
(assert (=> (and ((_ at-least 1) C1_VM4 C2_VM4 C3_VM4 C4_VM4 C5_VM4) (= VM4Type 5.0))
    (and (= PriceProv4 3309.0)
         (= ProcProv4 32.0)
         (= MemProv4 244000.0)
         (= StorageProv4 4000.0))))
(assert (=> (and ((_ at-least 1) C1_VM5 C2_VM5 C3_VM5 C4_VM5 C5_VM5) (= VM5Type 5.0))
    (and (= PriceProv5 3309.0)
         (= ProcProv5 32.0)
         (= MemProv5 244000.0)
         (= StorageProv5 4000.0))))
(assert (=> (and ((_ at-least 1) C1_VM1 C2_VM1 C3_VM1 C4_VM1 C5_VM1) (= VM1Type 6.0))
    (and (= PriceProv1 2117.0)
         (= ProcProv1 32.0)
         (= MemProv1 60000.0)
         (= StorageProv1 2000.0))))
(assert (=> (and ((_ at-least 1) C1_VM2 C2_VM2 C3_VM2 C4_VM2 C5_VM2) (= VM2Type 6.0))
    (and (= PriceProv2 2117.0)
         (= ProcProv2 32.0)
         (= MemProv2 60000.0)
         (= StorageProv2 2000.0))))
(assert (=> (and ((_ at-least 1) C1_VM3 C2_VM3 C3_VM3 C4_VM3 C5_VM3) (= VM3Type 6.0))
    (and (= PriceProv3 2117.0)
         (= ProcProv3 32.0)
         (= MemProv3 60000.0)
         (= StorageProv3 2000.0))))
(assert (=> (and ((_ at-least 1) C1_VM4 C2_VM4 C3_VM4 C4_VM4 C5_VM4) (= VM4Type 6.0))
    (and (= PriceProv4 2117.0)
         (= ProcProv4 32.0)
         (= MemProv4 60000.0)
         (= StorageProv4 2000.0))))
(assert (=> (and ((_ at-least 1) C1_VM5 C2_VM5 C3_VM5 C4_VM5 C5_VM5) (= VM5Type 6.0))
    (and (= PriceProv5 2117.0)
         (= ProcProv5 32.0)
         (= MemProv5 60000.0)
         (= StorageProv5 2000.0))))
(assert (=> (and ((_ at-least 1) C1_VM1 C2_VM1 C3_VM1 C4_VM1 C5_VM1) (= VM1Type 7.0))
    (and (= PriceProv1 1600.0)
         (= ProcProv1 16.0)
         (= MemProv1 122000.0)
         (= StorageProv1 1000.0))))
(assert (=> (and ((_ at-least 1) C1_VM2 C2_VM2 C3_VM2 C4_VM2 C5_VM2) (= VM2Type 7.0))
    (and (= PriceProv2 1600.0)
         (= ProcProv2 16.0)
         (= MemProv2 122000.0)
         (= StorageProv2 1000.0))))
(assert (=> (and ((_ at-least 1) C1_VM3 C2_VM3 C3_VM3 C4_VM3 C5_VM3) (= VM3Type 7.0))
    (and (= PriceProv3 1600.0)
         (= ProcProv3 16.0)
         (= MemProv3 122000.0)
         (= StorageProv3 1000.0))))
(assert (=> (and ((_ at-least 1) C1_VM4 C2_VM4 C3_VM4 C4_VM4 C5_VM4) (= VM4Type 7.0))
    (and (= PriceProv4 1600.0)
         (= ProcProv4 16.0)
         (= MemProv4 122000.0)
         (= StorageProv4 1000.0))))
(assert (=> (and ((_ at-least 1) C1_VM5 C2_VM5 C3_VM5 C4_VM5 C5_VM5) (= VM5Type 7.0))
    (and (= PriceProv5 1600.0)
         (= ProcProv5 16.0)
         (= MemProv5 122000.0)
         (= StorageProv5 1000.0))))
(assert (=> (and ((_ at-least 1) C1_VM1 C2_VM1 C3_VM1 C4_VM1 C5_VM1) (= VM1Type 8.0))
    (and (= PriceProv1 1248.0)
         (= ProcProv1 16.0)
         (= MemProv1 122000.0)
         (= StorageProv1 2000.0))))
(assert (=> (and ((_ at-least 1) C1_VM2 C2_VM2 C3_VM2 C4_VM2 C5_VM2) (= VM2Type 8.0))
    (and (= PriceProv2 1248.0)
         (= ProcProv2 16.0)
         (= MemProv2 122000.0)
         (= StorageProv2 2000.0))))
(assert (=> (and ((_ at-least 1) C1_VM3 C2_VM3 C3_VM3 C4_VM3 C5_VM3) (= VM3Type 8.0))
    (and (= PriceProv3 1248.0)
         (= ProcProv3 16.0)
         (= MemProv3 122000.0)
         (= StorageProv3 2000.0))))
(assert (=> (and ((_ at-least 1) C1_VM4 C2_VM4 C3_VM4 C4_VM4 C5_VM4) (= VM4Type 8.0))
    (and (= PriceProv4 1248.0)
         (= ProcProv4 16.0)
         (= MemProv4 122000.0)
         (= StorageProv4 2000.0))))
(assert (=> (and ((_ at-least 1) C1_VM5 C2_VM5 C3_VM5 C4_VM5 C5_VM5) (= VM5Type 8.0))
    (and (= PriceProv5 1248.0)
         (= ProcProv5 16.0)
         (= MemProv5 122000.0)
         (= StorageProv5 2000.0))))
(assert (=> (and ((_ at-least 1) C1_VM1 C2_VM1 C3_VM1 C4_VM1 C5_VM1) (= VM1Type 9.0))
    (and (= PriceProv1 5520.0)
         (= ProcProv1 17.0)
         (= MemProv1 117000.0)
         (= StorageProv1 24000.0))))
(assert (=> (and ((_ at-least 1) C1_VM2 C2_VM2 C3_VM2 C4_VM2 C5_VM2) (= VM2Type 9.0))
    (and (= PriceProv2 5520.0)
         (= ProcProv2 17.0)
         (= MemProv2 117000.0)
         (= StorageProv2 24000.0))))
(assert (=> (and ((_ at-least 1) C1_VM3 C2_VM3 C3_VM3 C4_VM3 C5_VM3) (= VM3Type 9.0))
    (and (= PriceProv3 5520.0)
         (= ProcProv3 17.0)
         (= MemProv3 117000.0)
         (= StorageProv3 24000.0))))
(assert (=> (and ((_ at-least 1) C1_VM4 C2_VM4 C3_VM4 C4_VM4 C5_VM4) (= VM4Type 9.0))
    (and (= PriceProv4 5520.0)
         (= ProcProv4 17.0)
         (= MemProv4 117000.0)
         (= StorageProv4 24000.0))))
(assert (=> (and ((_ at-least 1) C1_VM5 C2_VM5 C3_VM5 C4_VM5 C5_VM5) (= VM5Type 9.0))
    (and (= PriceProv5 5520.0)
         (= ProcProv5 17.0)
         (= MemProv5 117000.0)
         (= StorageProv5 24000.0))))
(assert (=> (and ((_ at-least 1) C1_VM1 C2_VM1 C3_VM1 C4_VM1 C5_VM1) (= VM1Type 10.0))
    (and (= PriceProv1 1020.0)
         (= ProcProv1 16.0)
         (= MemProv1 30000.0)
         (= StorageProv1 2000.0))))
(assert (=> (and ((_ at-least 1) C1_VM2 C2_VM2 C3_VM2 C4_VM2 C5_VM2) (= VM2Type 10.0))
    (and (= PriceProv2 1020.0)
         (= ProcProv2 16.0)
         (= MemProv2 30000.0)
         (= StorageProv2 2000.0))))
(assert (=> (and ((_ at-least 1) C1_VM3 C2_VM3 C3_VM3 C4_VM3 C5_VM3) (= VM3Type 10.0))
    (and (= PriceProv3 1020.0)
         (= ProcProv3 16.0)
         (= MemProv3 30000.0)
         (= StorageProv3 2000.0))))
(assert (=> (and ((_ at-least 1) C1_VM4 C2_VM4 C3_VM4 C4_VM4 C5_VM4) (= VM4Type 10.0))
    (and (= PriceProv4 1020.0)
         (= ProcProv4 16.0)
         (= MemProv4 30000.0)
         (= StorageProv4 2000.0))))
(assert (=> (and ((_ at-least 1) C1_VM5 C2_VM5 C3_VM5 C4_VM5 C5_VM5) (= VM5Type 10.0))
    (and (= PriceProv5 1020.0)
         (= ProcProv5 16.0)
         (= MemProv5 30000.0)
         (= StorageProv5 2000.0))))
(assert (=> (and ((_ at-least 1) C1_VM1 C2_VM1 C3_VM1 C4_VM1 C5_VM1) (= VM1Type 11.0))
    (and (= PriceProv1 688.0)
         (= ProcProv1 8.0)
         (= MemProv1 61000.0)
         (= StorageProv1 1000.0))))
(assert (=> (and ((_ at-least 1) C1_VM2 C2_VM2 C3_VM2 C4_VM2 C5_VM2) (= VM2Type 11.0))
    (and (= PriceProv2 688.0)
         (= ProcProv2 8.0)
         (= MemProv2 61000.0)
         (= StorageProv2 1000.0))))
(assert (=> (and ((_ at-least 1) C1_VM3 C2_VM3 C3_VM3 C4_VM3 C5_VM3) (= VM3Type 11.0))
    (and (= PriceProv3 688.0)
         (= ProcProv3 8.0)
         (= MemProv3 61000.0)
         (= StorageProv3 1000.0))))
(assert (=> (and ((_ at-least 1) C1_VM4 C2_VM4 C3_VM4 C4_VM4 C5_VM4) (= VM4Type 11.0))
    (and (= PriceProv4 688.0)
         (= ProcProv4 8.0)
         (= MemProv4 61000.0)
         (= StorageProv4 1000.0))))
(assert (=> (and ((_ at-least 1) C1_VM5 C2_VM5 C3_VM5 C4_VM5 C5_VM5) (= VM5Type 11.0))
    (and (= PriceProv5 688.0)
         (= ProcProv5 8.0)
         (= MemProv5 61000.0)
         (= StorageProv5 1000.0))))
(assert (=> (and ((_ at-least 1) C1_VM1 C2_VM1 C3_VM1 C4_VM1 C5_VM1) (= VM1Type 12.0))
    (and (= PriceProv1 1544.0)
         (= ProcProv1 8.0)
         (= MemProv1 61000.0)
         (= StorageProv1 6000.0))))
(assert (=> (and ((_ at-least 1) C1_VM2 C2_VM2 C3_VM2 C4_VM2 C5_VM2) (= VM2Type 12.0))
    (and (= PriceProv2 1544.0)
         (= ProcProv2 8.0)
         (= MemProv2 61000.0)
         (= StorageProv2 6000.0))))
(assert (=> (and ((_ at-least 1) C1_VM3 C2_VM3 C3_VM3 C4_VM3 C5_VM3) (= VM3Type 12.0))
    (and (= PriceProv3 1544.0)
         (= ProcProv3 8.0)
         (= MemProv3 61000.0)
         (= StorageProv3 6000.0))))
(assert (=> (and ((_ at-least 1) C1_VM4 C2_VM4 C3_VM4 C4_VM4 C5_VM4) (= VM4Type 12.0))
    (and (= PriceProv4 1544.0)
         (= ProcProv4 8.0)
         (= MemProv4 61000.0)
         (= StorageProv4 6000.0))))
(assert (=> (and ((_ at-least 1) C1_VM5 C2_VM5 C3_VM5 C4_VM5 C5_VM5) (= VM5Type 12.0))
    (and (= PriceProv5 1544.0)
         (= ProcProv5 8.0)
         (= MemProv5 61000.0)
         (= StorageProv5 6000.0))))
(assert (=> (and ((_ at-least 1) C1_VM1 C2_VM1 C3_VM1 C4_VM1 C5_VM1) (= VM1Type 13.0))
    (and (= PriceProv1 1209.0)
         (= ProcProv1 4.0)
         (= MemProv1 122000.0)
         (= StorageProv1 1000.0))))
(assert (=> (and ((_ at-least 1) C1_VM2 C2_VM2 C3_VM2 C4_VM2 C5_VM2) (= VM2Type 13.0))
    (and (= PriceProv2 1209.0)
         (= ProcProv2 4.0)
         (= MemProv2 122000.0)
         (= StorageProv2 1000.0))))
(assert (=> (and ((_ at-least 1) C1_VM3 C2_VM3 C3_VM3 C4_VM3 C5_VM3) (= VM3Type 13.0))
    (and (= PriceProv3 1209.0)
         (= ProcProv3 4.0)
         (= MemProv3 122000.0)
         (= StorageProv3 1000.0))))
(assert (=> (and ((_ at-least 1) C1_VM4 C2_VM4 C3_VM4 C4_VM4 C5_VM4) (= VM4Type 13.0))
    (and (= PriceProv4 1209.0)
         (= ProcProv4 4.0)
         (= MemProv4 122000.0)
         (= StorageProv4 1000.0))))
(assert (=> (and ((_ at-least 1) C1_VM5 C2_VM5 C3_VM5 C4_VM5 C5_VM5) (= VM5Type 13.0))
    (and (= PriceProv5 1209.0)
         (= ProcProv5 4.0)
         (= MemProv5 122000.0)
         (= StorageProv5 1000.0))))
(assert (=> (and ((_ at-least 1) C1_VM1 C2_VM1 C3_VM1 C4_VM1 C5_VM1) (= VM1Type 14.0))
    (and (= PriceProv1 911.0)
         (= ProcProv1 4.0)
         (= MemProv1 30500.0)
         (= StorageProv1 3000.0))))
(assert (=> (and ((_ at-least 1) C1_VM2 C2_VM2 C3_VM2 C4_VM2 C5_VM2) (= VM2Type 14.0))
    (and (= PriceProv2 911.0)
         (= ProcProv2 4.0)
         (= MemProv2 30500.0)
         (= StorageProv2 3000.0))))
(assert (=> (and ((_ at-least 1) C1_VM3 C2_VM3 C3_VM3 C4_VM3 C5_VM3) (= VM3Type 14.0))
    (and (= PriceProv3 911.0)
         (= ProcProv3 4.0)
         (= MemProv3 30500.0)
         (= StorageProv3 3000.0))))
(assert (=> (and ((_ at-least 1) C1_VM4 C2_VM4 C3_VM4 C4_VM4 C5_VM4) (= VM4Type 14.0))
    (and (= PriceProv4 911.0)
         (= ProcProv4 4.0)
         (= MemProv4 30500.0)
         (= StorageProv4 3000.0))))
(assert (=> (and ((_ at-least 1) C1_VM5 C2_VM5 C3_VM5 C4_VM5 C5_VM5) (= VM5Type 14.0))
    (and (= PriceProv5 911.0)
         (= ProcProv5 4.0)
         (= MemProv5 30500.0)
         (= StorageProv5 3000.0))))
(assert (=> (and ((_ at-least 1) C1_VM1 C2_VM1 C3_VM1 C4_VM1 C5_VM1) (= VM1Type 15.0))
    (and (= PriceProv1 283.0)
         (= ProcProv1 4.0)
         (= MemProv1 7500.0)
         (= StorageProv1 2000.0))))
(assert (=> (and ((_ at-least 1) C1_VM2 C2_VM2 C3_VM2 C4_VM2 C5_VM2) (= VM2Type 15.0))
    (and (= PriceProv2 283.0)
         (= ProcProv2 4.0)
         (= MemProv2 7500.0)
         (= StorageProv2 2000.0))))
(assert (=> (and ((_ at-least 1) C1_VM3 C2_VM3 C3_VM3 C4_VM3 C5_VM3) (= VM3Type 15.0))
    (and (= PriceProv3 283.0)
         (= ProcProv3 4.0)
         (= MemProv3 7500.0)
         (= StorageProv3 2000.0))))
(assert (=> (and ((_ at-least 1) C1_VM4 C2_VM4 C3_VM4 C4_VM4 C5_VM4) (= VM4Type 15.0))
    (and (= PriceProv4 283.0)
         (= ProcProv4 4.0)
         (= MemProv4 7500.0)
         (= StorageProv4 2000.0))))
(assert (=> (and ((_ at-least 1) C1_VM5 C2_VM5 C3_VM5 C4_VM5 C5_VM5) (= VM5Type 15.0))
    (and (= PriceProv5 283.0)
         (= ProcProv5 4.0)
         (= MemProv5 7500.0)
         (= StorageProv5 2000.0))))
(assert (=> (and ((_ at-least 1) C1_VM1 C2_VM1 C3_VM1 C4_VM1 C5_VM1) (= VM1Type 16.0))
    (and (= PriceProv1 379.0)
         (= ProcProv1 4.0)
         (= MemProv1 30500.0)
         (= StorageProv1 1000.0))))
(assert (=> (and ((_ at-least 1) C1_VM2 C2_VM2 C3_VM2 C4_VM2 C5_VM2) (= VM2Type 16.0))
    (and (= PriceProv2 379.0)
         (= ProcProv2 4.0)
         (= MemProv2 30500.0)
         (= StorageProv2 1000.0))))
(assert (=> (and ((_ at-least 1) C1_VM3 C2_VM3 C3_VM3 C4_VM3 C5_VM3) (= VM3Type 16.0))
    (and (= PriceProv3 379.0)
         (= ProcProv3 4.0)
         (= MemProv3 30500.0)
         (= StorageProv3 1000.0))))
(assert (=> (and ((_ at-least 1) C1_VM4 C2_VM4 C3_VM4 C4_VM4 C5_VM4) (= VM4Type 16.0))
    (and (= PriceProv4 379.0)
         (= ProcProv4 4.0)
         (= MemProv4 30500.0)
         (= StorageProv4 1000.0))))
(assert (=> (and ((_ at-least 1) C1_VM5 C2_VM5 C3_VM5 C4_VM5 C5_VM5) (= VM5Type 16.0))
    (and (= PriceProv5 379.0)
         (= ProcProv5 4.0)
         (= MemProv5 30500.0)
         (= StorageProv5 1000.0))))
(assert (=> (and ((_ at-least 1) C1_VM1 C2_VM1 C3_VM1 C4_VM1 C5_VM1) (= VM1Type 17.0))
    (and (= PriceProv1 146.0)
         (= ProcProv1 2.0)
         (= MemProv1 7500.0)
         (= StorageProv1 1000.0))))
(assert (=> (and ((_ at-least 1) C1_VM2 C2_VM2 C3_VM2 C4_VM2 C5_VM2) (= VM2Type 17.0))
    (and (= PriceProv2 146.0)
         (= ProcProv2 2.0)
         (= MemProv2 7500.0)
         (= StorageProv2 1000.0))))
(assert (=> (and ((_ at-least 1) C1_VM3 C2_VM3 C3_VM3 C4_VM3 C5_VM3) (= VM3Type 17.0))
    (and (= PriceProv3 146.0)
         (= ProcProv3 2.0)
         (= MemProv3 7500.0)
         (= StorageProv3 1000.0))))
(assert (=> (and ((_ at-least 1) C1_VM4 C2_VM4 C3_VM4 C4_VM4 C5_VM4) (= VM4Type 17.0))
    (and (= PriceProv4 146.0)
         (= ProcProv4 2.0)
         (= MemProv4 7500.0)
         (= StorageProv4 1000.0))))
(assert (=> (and ((_ at-least 1) C1_VM5 C2_VM5 C3_VM5 C4_VM5 C5_VM5) (= VM5Type 17.0))
    (and (= PriceProv5 146.0)
         (= ProcProv5 2.0)
         (= MemProv5 7500.0)
         (= StorageProv5 1000.0))))
(assert (=> (and ((_ at-least 1) C1_VM1 C2_VM1 C3_VM1 C4_VM1 C5_VM1) (= VM1Type 18.0))
    (and (= PriceProv1 115.0)
         (= ProcProv1 2.0)
         (= MemProv1 3750.0)
         (= StorageProv1 2000.0))))
(assert (=> (and ((_ at-least 1) C1_VM2 C2_VM2 C3_VM2 C4_VM2 C5_VM2) (= VM2Type 18.0))
    (and (= PriceProv2 115.0)
         (= ProcProv2 2.0)
         (= MemProv2 3750.0)
         (= StorageProv2 2000.0))))
(assert (=> (and ((_ at-least 1) C1_VM3 C2_VM3 C3_VM3 C4_VM3 C5_VM3) (= VM3Type 18.0))
    (and (= PriceProv3 115.0)
         (= ProcProv3 2.0)
         (= MemProv3 3750.0)
         (= StorageProv3 2000.0))))
(assert (=> (and ((_ at-least 1) C1_VM4 C2_VM4 C3_VM4 C4_VM4 C5_VM4) (= VM4Type 18.0))
    (and (= PriceProv4 115.0)
         (= ProcProv4 2.0)
         (= MemProv4 3750.0)
         (= StorageProv4 2000.0))))
(assert (=> (and ((_ at-least 1) C1_VM5 C2_VM5 C3_VM5 C4_VM5 C5_VM5) (= VM5Type 18.0))
    (and (= PriceProv5 115.0)
         (= ProcProv5 2.0)
         (= MemProv5 3750.0)
         (= StorageProv5 2000.0))))
(assert (=> (and ((_ at-least 1) C1_VM1 C2_VM1 C3_VM1 C4_VM1 C5_VM1) (= VM1Type 19.0))
    (and (= PriceProv1 64.0)
         (= ProcProv1 1.0)
         (= MemProv1 1700.0)
         (= StorageProv1 1000.0))))
(assert (=> (and ((_ at-least 1) C1_VM2 C2_VM2 C3_VM2 C4_VM2 C5_VM2) (= VM2Type 19.0))
    (and (= PriceProv2 64.0)
         (= ProcProv2 1.0)
         (= MemProv2 1700.0)
         (= StorageProv2 1000.0))))
(assert (=> (and ((_ at-least 1) C1_VM3 C2_VM3 C3_VM3 C4_VM3 C5_VM3) (= VM3Type 19.0))
    (and (= PriceProv3 64.0)
         (= ProcProv3 1.0)
         (= MemProv3 1700.0)
         (= StorageProv3 1000.0))))
(assert (=> (and ((_ at-least 1) C1_VM4 C2_VM4 C3_VM4 C4_VM4 C5_VM4) (= VM4Type 19.0))
    (and (= PriceProv4 64.0)
         (= ProcProv4 1.0)
         (= MemProv4 1700.0)
         (= StorageProv4 1000.0))))
(assert (=> (and ((_ at-least 1) C1_VM5 C2_VM5 C3_VM5 C4_VM5 C5_VM5) (= VM5Type 19.0))
    (and (= PriceProv5 64.0)
         (= ProcProv5 1.0)
         (= MemProv5 1700.0)
         (= StorageProv5 1000.0))))
(assert (=> (and ((_ at-least 1) C1_VM1 C2_VM1 C3_VM1 C4_VM1 C5_VM1) (= VM1Type 20.0))
    (and (= PriceProv1 134.0)
         (= ProcProv1 1.0)
         (= MemProv1 3750.0)
         (= StorageProv1 1000.0))))
(assert (=> (and ((_ at-least 1) C1_VM2 C2_VM2 C3_VM2 C4_VM2 C5_VM2) (= VM2Type 20.0))
    (and (= PriceProv2 134.0)
         (= ProcProv2 1.0)
         (= MemProv2 3750.0)
         (= StorageProv2 1000.0))))
(assert (=> (and ((_ at-least 1) C1_VM3 C2_VM3 C3_VM3 C4_VM3 C5_VM3) (= VM3Type 20.0))
    (and (= PriceProv3 134.0)
         (= ProcProv3 1.0)
         (= MemProv3 3750.0)
         (= StorageProv3 1000.0))))
(assert (=> (and ((_ at-least 1) C1_VM4 C2_VM4 C3_VM4 C4_VM4 C5_VM4) (= VM4Type 20.0))
    (and (= PriceProv4 134.0)
         (= ProcProv4 1.0)
         (= MemProv4 3750.0)
         (= StorageProv4 1000.0))))
(assert (=> (and ((_ at-least 1) C1_VM5 C2_VM5 C3_VM5 C4_VM5 C5_VM5) (= VM5Type 20.0))
    (and (= PriceProv5 134.0)
         (= ProcProv5 1.0)
         (= MemProv5 3750.0)
         (= StorageProv5 1000.0))))
(assert ((_ at-most 1) C1_VM1 C2_VM1))
(assert ((_ at-most 1) C1_VM1 C3_VM1))
(assert ((_ at-most 1) C1_VM1 C4_VM1))
(assert ((_ at-most 1) C1_VM1 C5_VM1))
(assert ((_ at-most 1) C1_VM2 C2_VM2))
(assert ((_ at-most 1) C1_VM2 C3_VM2))
(assert ((_ at-most 1) C1_VM2 C4_VM2))
(assert ((_ at-most 1) C1_VM2 C5_VM2))
(assert ((_ at-most 1) C1_VM3 C2_VM3))
(assert ((_ at-most 1) C1_VM3 C3_VM3))
(assert ((_ at-most 1) C1_VM3 C4_VM3))
(assert ((_ at-most 1) C1_VM3 C5_VM3))
(assert ((_ at-most 1) C1_VM4 C2_VM4))
(assert ((_ at-most 1) C1_VM4 C3_VM4))
(assert ((_ at-most 1) C1_VM4 C4_VM4))
(assert ((_ at-most 1) C1_VM4 C5_VM4))
(assert ((_ at-most 1) C1_VM5 C2_VM5))
(assert ((_ at-most 1) C1_VM5 C3_VM5))
(assert ((_ at-most 1) C1_VM5 C4_VM5))
(assert ((_ at-most 1) C1_VM5 C5_VM5))
(assert ((_ at-most 1) C5_VM1 C3_VM1))
(assert ((_ at-most 1) C5_VM1 C4_VM1))
(assert ((_ at-most 1) C5_VM2 C3_VM2))
(assert ((_ at-most 1) C5_VM2 C4_VM2))
(assert ((_ at-most 1) C5_VM3 C3_VM3))
(assert ((_ at-most 1) C5_VM3 C4_VM3))
(assert ((_ at-most 1) C5_VM4 C3_VM4))
(assert ((_ at-most 1) C5_VM4 C4_VM4))
(assert ((_ at-most 1) C5_VM5 C3_VM5))
(assert ((_ at-most 1) C5_VM5 C4_VM5))
(assert ((_ pbeq 1 1 1 1 1 1) C1_VM1 C1_VM2 C1_VM3 C1_VM4 C1_VM5))
(assert ((_ pbeq 1 1 1 1 1 1) C5_VM1 C5_VM2 C5_VM3 C5_VM4 C5_VM5))
(assert ((_ at-least 1) C1_VM1 C1_VM2 C1_VM3 C1_VM4 C1_VM5))
(assert ((_ at-least 1) C2_VM1 C2_VM2 C2_VM3 C2_VM4 C2_VM5))
(assert ((_ at-least 1) C3_VM1 C3_VM2 C3_VM3 C3_VM4 C3_VM5))
(assert ((_ at-least 1) C4_VM1 C4_VM2 C4_VM3 C4_VM4 C4_VM5))
(assert ((_ at-least 1) C5_VM1 C5_VM2 C5_VM3 C5_VM4 C5_VM5))
(assert (let ((a!1 (to_real (+ 0
                       (* (ite C1_VM1 1 0) 4)
                       (* (ite C2_VM1 1 0) 2)
                       (* (ite C3_VM1 1 0) 4)
                       (* (ite C4_VM1 1 0) 2)
                       (* (ite C5_VM1 1 0) 4)))))
  (<= a!1 ProcProv1)))
(assert (let ((a!1 (to_real (+ 0
                       (* (ite C1_VM2 1 0) 4)
                       (* (ite C2_VM2 1 0) 2)
                       (* (ite C3_VM2 1 0) 4)
                       (* (ite C4_VM2 1 0) 2)
                       (* (ite C5_VM2 1 0) 4)))))
  (<= a!1 ProcProv2)))
(assert (let ((a!1 (to_real (+ 0
                       (* (ite C1_VM3 1 0) 4)
                       (* (ite C2_VM3 1 0) 2)
                       (* (ite C3_VM3 1 0) 4)
                       (* (ite C4_VM3 1 0) 2)
                       (* (ite C5_VM3 1 0) 4)))))
  (<= a!1 ProcProv3)))
(assert (let ((a!1 (to_real (+ 0
                       (* (ite C1_VM4 1 0) 4)
                       (* (ite C2_VM4 1 0) 2)
                       (* (ite C3_VM4 1 0) 4)
                       (* (ite C4_VM4 1 0) 2)
                       (* (ite C5_VM4 1 0) 4)))))
  (<= a!1 ProcProv4)))
(assert (let ((a!1 (to_real (+ 0
                       (* (ite C1_VM5 1 0) 4)
                       (* (ite C2_VM5 1 0) 2)
                       (* (ite C3_VM5 1 0) 4)
                       (* (ite C4_VM5 1 0) 2)
                       (* (ite C5_VM5 1 0) 4)))))
  (<= a!1 ProcProv5)))
(assert (let ((a!1 (to_real (+ 0
                       (* (ite C1_VM1 1 0) 4096)
                       (* (ite C2_VM1 1 0) 2048)
                       (* (ite C3_VM1 1 0) 4096)
                       (* (ite C4_VM1 1 0) 512)
                       (* (ite C5_VM1 1 0) 2048)))))
  (<= a!1 MemProv1)))
(assert (let ((a!1 (to_real (+ 0
                       (* (ite C1_VM2 1 0) 4096)
                       (* (ite C2_VM2 1 0) 2048)
                       (* (ite C3_VM2 1 0) 4096)
                       (* (ite C4_VM2 1 0) 512)
                       (* (ite C5_VM2 1 0) 2048)))))
  (<= a!1 MemProv2)))
(assert (let ((a!1 (to_real (+ 0
                       (* (ite C1_VM3 1 0) 4096)
                       (* (ite C2_VM3 1 0) 2048)
                       (* (ite C3_VM3 1 0) 4096)
                       (* (ite C4_VM3 1 0) 512)
                       (* (ite C5_VM3 1 0) 2048)))))
  (<= a!1 MemProv3)))
(assert (let ((a!1 (to_real (+ 0
                       (* (ite C1_VM4 1 0) 4096)
                       (* (ite C2_VM4 1 0) 2048)
                       (* (ite C3_VM4 1 0) 4096)
                       (* (ite C4_VM4 1 0) 512)
                       (* (ite C5_VM4 1 0) 2048)))))
  (<= a!1 MemProv4)))
(assert (let ((a!1 (to_real (+ 0
                       (* (ite C1_VM5 1 0) 4096)
                       (* (ite C2_VM5 1 0) 2048)
                       (* (ite C3_VM5 1 0) 4096)
                       (* (ite C4_VM5 1 0) 512)
                       (* (ite C5_VM5 1 0) 2048)))))
  (<= a!1 MemProv5)))
(assert (let ((a!1 (to_real (+ 0
                       (* (ite C1_VM1 1 0) 1024)
                       (* (ite C2_VM1 1 0) 512)
                       (* (ite C3_VM1 1 0) 512)
                       (* (ite C4_VM1 1 0) 2000)
                       (* (ite C5_VM1 1 0) 500)))))
  (<= a!1 StorageProv1)))
(assert (let ((a!1 (to_real (+ 0
                       (* (ite C1_VM2 1 0) 1024)
                       (* (ite C2_VM2 1 0) 512)
                       (* (ite C3_VM2 1 0) 512)
                       (* (ite C4_VM2 1 0) 2000)
                       (* (ite C5_VM2 1 0) 500)))))
  (<= a!1 StorageProv2)))
(assert (let ((a!1 (to_real (+ 0
                       (* (ite C1_VM3 1 0) 1024)
                       (* (ite C2_VM3 1 0) 512)
                       (* (ite C3_VM3 1 0) 512)
                       (* (ite C4_VM3 1 0) 2000)
                       (* (ite C5_VM3 1 0) 500)))))
  (<= a!1 StorageProv3)))
(assert (let ((a!1 (to_real (+ 0
                       (* (ite C1_VM4 1 0) 1024)
                       (* (ite C2_VM4 1 0) 512)
                       (* (ite C3_VM4 1 0) 512)
                       (* (ite C4_VM4 1 0) 2000)
                       (* (ite C5_VM4 1 0) 500)))))
  (<= a!1 StorageProv4)))
(assert (let ((a!1 (to_real (+ 0
                       (* (ite C1_VM5 1 0) 1024)
                       (* (ite C2_VM5 1 0) 512)
                       (* (ite C3_VM5 1 0) 512)
                       (* (ite C4_VM5 1 0) 2000)
                       (* (ite C5_VM5 1 0) 500)))))
  (<= a!1 StorageProv5)))
(minimize (+ 0.0 PriceProv1 PriceProv2 PriceProv3 PriceProv4 PriceProv5))
(check-sat)
(get-objectives)
(exit)